100
100
99
99
98
97
97
96
96
95
95
95
94
94
94
94
91
91
89
88
87
86
86
85
84
83
82
82
82
81
81
79
78
78
76
76
76
76
73
72
71
71
70
70
70
69
69
69
69
69
68
68
67
66
65
64
61
61
61
61
60
60
59
59
58
57
57
55
54
54
48
45
45
44
44
43
42
42
42
42
41
41
39
38
37
37
36
36
35
35
35
35
34
34
34
33
33
32
31
31
31
30
